\* Problem: Unknown *\

Maximize
 obj: + xp_0_0 + xp_0_1 + xp_0_2 + xp_0_3 + xp_0_4 + xp_0_5 + xp_0_6
 + xp_1_0 + xp_1_1 + xp_1_2 + xp_2_0 + xp_2_1 + xp_2_2 + xp_2_3 + xp_3_0
 + xp_3_1 + xp_3_2 + xp_3_3 + xp_4_0 + xp_5_0 + xp_5_1 + xp_6_0 + xp_6_1
 + xp_6_2 + xp_7_0 + xp_7_1 + xp_8_0 + xp_8_1 + xp_9_0 + xp_10_0
 + xp_11_0 + xp_11_1 + xp_11_2 + xp_11_3 + xp_11_4 + xp_12_0 + xp_13_0
 + xp_13_1 + xp_14_0 + xp_14_1 + xp_15_0 + xp_16_0 + xp_17_0 + xp_17_1
 + xp_17_2 + xp_17_3 + xp_18_0 + xp_18_1 + xp_18_2 + xp_18_3 + xp_19_0
 + xp_19_1 + xp_19_2 + xp_19_3 + xp_19_4 + xp_19_5 + xp_20_0 + xp_20_1
 + xp_20_2 + xp_20_3 + xp_21_0 + xp_21_1 + xp_21_2 + xp_21_3 + xp_21_4
 + xp_22_0 + xp_22_1 + xp_22_2 + xp_22_3 + xp_22_4 + xp_22_5 + xp_22_6
 + xp_23_0 + xp_23_1 + xp_23_2 + xp_23_3

Subject To
 r_1: 0 xp_0_0 <= 25.9391100702576
 r_2: + xp_23_3 + xp_22_5 + xp_18_3 + xp_17_2 + xp_5_1 + xp_2_3
 <= 25.7482284285119
 r_3: + xp_23_2 + xp_21_4 + xp_18_2 + xp_6_2 <= 26.5090230242688
 r_4: + xp_15_0 + xp_0_5 <= 27.1553784860558
 r_5: + xp_18_0 <= 25.5951933909125
 r_6: + xp_18_1 <= 26.2815479528884
 r_7: + xp_20_3 <= 25.9391100702576
 r_8: + xp_22_4 + xp_11_3 + xp_3_3 + xp_3_2 + xp_2_1 <= 25.7482284285119
 r_9: + xp_17_3 + xp_11_1 + xp_6_1 + xp_3_1 <= 26.5090230242688
 r_10: + xp_3_0 <= 27.1553784860558
 r_11: + xp_18_1 + xp_11_2 <= 25.5951933909125
 r_12: + xp_11_0 <= 26.2815479528884
 r_13: + xp_11_4 <= 27.6367006487488
 r_14: + xp_21_2 + xp_19_4 + xp_14_0 + xp_0_3 + xp_0_1
 <= 25.7482284285119
 r_15: + xp_21_0 + xp_19_3 <= 26.5090230242688
 r_16: + xp_22_2 + xp_21_1 + xp_19_5 + xp_0_4 + xp_0_2
 <= 26.6425279789335
 r_17: + xp_0_0 <= 25.5951933909125
 r_18: + xp_21_4 + xp_4_0 + xp_0_5 <= 25.9391100702576
 r_19: + xp_19_0 <= 25.9391100702576
 r_20: + xp_21_3 + xp_19_2 + xp_19_1 + xp_14_1 + xp_0_6
 <= 27.6367006487488
 r_21: + xp_20_1 <= 25.7482284285119
 r_22: + xp_21_3 + xp_21_2 + xp_7_1 <= 26.5090230242688
 r_23: + xp_22_5 + xp_22_4 + xp_22_3 + xp_3_3 <= 26.6425279789335
 r_24: + xp_23_3 + xp_17_2 + xp_3_2 + xp_0_3 <= 26.3893805309735
 r_25: 0 xp_0_0 <= 27.6367006487488
 r_26: + xp_18_3 + xp_0_6 + xp_0_1 <= 25.5951933909125
 r_27: + xp_11_4 + xp_11_3 <= 25.7482284285119
 r_28: + xp_19_4 + xp_19_2 <= 25.7482284285119
 r_29: + xp_20_2 <= 26.5090230242688
 r_30: + xp_2_0 <= 26.5090230242688
 r_31: + xp_23_2 + xp_18_2 + xp_17_3 + xp_6_2 + xp_6_1 + xp_3_1
 <= 26.3893805309735
 r_32: + xp_2_2 <= 27.6367006487488
 r_33: + xp_11_1 + xp_2_3 <= 26.5090230242688
 r_34: + xp_19_3 + xp_2_1 <= 26.5090230242688
 r_35: 0 xp_0_0 <= 26.6425279789335
 r_36: + xp_9_0 <= 26.6425279789335
 r_37: + xp_21_1 + xp_13_1 + xp_8_1 + xp_1_2 <= 26.3893805309735
 r_38: + xp_1_1 + xp_0_4 <= 28.3056478405316
 r_39: + xp_19_5 + xp_17_1 + xp_3_3 <= 27.1553784860558
 r_40: + xp_0_2 <= 25.5951933909125
 r_41: + xp_12_0 <= 26.3893805309735
 r_42: + xp_21_1 <= 26.3893805309735
 r_43: + xp_16_0 <= 26.3893805309735
 r_44: + xp_23_3 + xp_23_2 + xp_23_1 + xp_22_6 + xp_1_2
 <= 28.3056478405316
 r_45: + xp_17_3 + xp_17_2 + xp_3_2 + xp_3_1 <= 27.1553784860558
 r_46: + xp_18_2 + xp_0_3 <= 25.5951933909125
 r_47: + xp_22_6 + xp_22_1 + xp_13_1 <= 28.3056478405316
 r_48: + xp_13_0 <= 28.3056478405316
 r_49: 0 xp_0_0 <= 27.1553784860558
 r_50: + xp_0_4 <= 25.5951933909125
 r_51: + xp_8_1 + xp_1_2 + xp_1_1 <= 27.1553784860558
 r_52: + xp_8_0 <= 27.1553784860558
 r_53: + xp_1_0 <= 27.1553784860558
 r_54: + xp_0_5 <= 25.5951933909125
 r_55: 0 xp_0_0 <= 27.1553784860558
 r_56: + xp_19_5 <= 27.1553784860558
 r_57: + xp_22_2 <= 25.5951933909125
 r_58: + xp_22_3 + xp_5_0 <= 25.5951933909125
 r_59: + xp_22_0 + xp_17_1 <= 25.5951933909125
 r_60: + xp_23_1 + xp_22_6 + xp_6_0 <= 25.5951933909125
 r_61: + xp_23_0 + xp_22_1 <= 25.5951933909125
 r_62: + xp_17_0 <= 25.5951933909125
 r_63: + xp_23_3 + xp_23_2 + xp_22_5 + xp_17_2 + xp_11_2 + xp_6_2
 + xp_5_1 <= 25.5951933909125
 r_64: + xp_22_4 + xp_17_3 + xp_6_1 <= 25.5951933909125
 r_65: + xp_21_3 + xp_20_1 + xp_19_2 + xp_14_1 + xp_11_4 + xp_7_1
 + xp_2_2 + xp_0_6 <= 27.6367006487488
 r_66: + xp_20_2 + xp_7_0 <= 27.6367006487488
 r_67: + xp_20_3 + xp_19_1 + xp_10_0 <= 27.6367006487488
 r_68: + xp_20_0 <= 27.6367006487488

Bounds
 0 <= xp_0_0 <= 26.7857161060504
 0 <= xp_0_1 <= 6.84947317451643
 0 <= xp_0_2 <= 12.7423524647957
 0 <= xp_0_3 <= 2.60202235291786
 0 <= xp_0_4 <= 4.24745082159857
 0 <= xp_0_5 <= 1.30101117645893
 0 <= xp_0_6 <= 4.24745082159857
 0 <= xp_1_0 <= 20.7015231358646
 0 <= xp_1_1 <= 10.969381542844
 0 <= xp_1_2 <= 1.23723994982345
 0 <= xp_2_0 <= 22.3979634889127
 0 <= xp_2_1 <= 5.40816020251846
 0 <= xp_2_2 <= 1.16070938091988
 0 <= xp_2_3 <= 3.48212814275965
 0 <= xp_3_0 <= 26.2627614659935
 0 <= xp_3_1 <= 0.77805653640207
 0 <= xp_3_2 <= 1.55611307280414
 0 <= xp_3_3 <= 1.55611307280414
 0 <= xp_4_0 <= 24.4897820491402
 0 <= xp_5_0 <= 20.4081517076168
 0 <= xp_5_1 <= 4.08163034152336
 0 <= xp_6_0 <= 14.6938692294841
 0 <= xp_6_1 <= 3.67346730737103
 0 <= xp_6_2 <= 3.67346730737103
 0 <= xp_7_0 <= 17.6020308478195
 0 <= xp_7_1 <= 3.5204061695639
 0 <= xp_8_0 <= 15.816317573403
 0 <= xp_8_1 <= 3.16326351468061
 0 <= xp_9_0 <= 17.6020308478195
 0 <= xp_10_0 <= 17.6020308478195
 0 <= xp_11_0 <= 25.4847049295914
 0 <= xp_11_1 <= 13.5331598485642
 0 <= xp_11_2 <= 5.82906558913559
 0 <= xp_11_3 <= 10.0765164107342
 0 <= xp_11_4 <= 0.790807383768509
 0 <= xp_12_0 <= 16.5306028831696
 0 <= xp_13_0 <= 13.3928495581235
 0 <= xp_13_1 <= 2.67856991162471
 0 <= xp_14_0 <= 10.2040758538084
 0 <= xp_14_1 <= 5.1020379269042
 0 <= xp_15_0 <= 15.1530526429055
 0 <= xp_16_0 <= 14.540808091677
 0 <= xp_17_0 <= 26.9260179015894
 0 <= xp_17_1 <= 8.53314569039482
 0 <= xp_17_2 <= 2.84438189679827
 0 <= xp_17_3 <= 4.24745082159857
 0 <= xp_18_0 <= 22.0663225287623
 0 <= xp_18_1 <= 11.8622296851506
 0 <= xp_18_2 <= 4.24745082159857
 0 <= xp_18_3 <= 2.53825962118402
 0 <= xp_19_0 <= 27.9464339818719
 0 <= xp_19_1 <= 2.46172905228046
 0 <= xp_19_2 <= 2.46172905228046
 0 <= xp_19_3 <= 2.46172905228046
 0 <= xp_19_4 <= 2.46172905228046
 0 <= xp_19_5 <= 2.46172905228046
 0 <= xp_20_0 <= 25.9056103162086
 0 <= xp_20_1 <= 4.6683562082157
 0 <= xp_20_2 <= 6.58162892570642
 0 <= xp_20_3 <= 2.33417810410785
 0 <= xp_21_0 <= 27.5382709477195
 0 <= xp_21_1 <= 4.10713203625624
 0 <= xp_21_2 <= 2.05356601812812
 0 <= xp_21_3 <= 2.05356601812812
 0 <= xp_21_4 <= 2.05356601812812
 0 <= xp_22_0 <= 16.3392807083615
 0 <= xp_22_1 <= 4.24745082159857
 0 <= xp_22_2 <= 1.79846412178291
 0 <= xp_22_3 <= 4.24745082159857
 0 <= xp_22_4 <= 6.04591494338148
 0 <= xp_22_5 <= 1.79846412178291
 0 <= xp_22_6 <= 1.79846412178291
 0 <= xp_23_0 <= 24.8341823515587
 0 <= xp_23_1 <= 7.84437906516439
 0 <= xp_23_2 <= 1.79846412178291
 0 <= xp_23_3 <= 1.79846412178291

End
